(declare-const x0 Real)
(assert (<= 0.0 x0))
(declare-const x1 Real)
(assert (<= 1.200000 x1))
(declare-const x2 Real)
(assert (<= 20.0 x2))
(declare-const x3 Real)
(assert (<= 9.0 x3))
(declare-const x4 Real)
(assert (<= x4 7.0))

(assert (<= 0.0 (* x0 (+ (- 145421.402000) (* 2931.150600 x1) (* (- 40.427932) x2) (* 5106.192000 x3) (* 15711.360000 x4)))))
(assert (<= 0.0 (* x0 (+ (- 155011.108400) (* 4360.533520 x1) (* 12.949234 x2) (* 10236.884000 x3) (* 13176.786000 x4)))))
(assert (<= 0.0 (* x0 (+ (- 326669.510400) (* 7390.684120 x1) (* (- 27.898698) x2) (* 16643.076000 x3) (* 30988.146000 x4)))))
(assert (<= (- 294000.0) (- (* x0 (+ (- 145421.402000) (* 2931.150600 x1) (* (- 40.427932) x2) (* 5106.192000 x3) (* 15711.360000 x4))))))
(assert (<= (- 294000.0) (- (* x0 (+ (- 155011.108400) (* 4360.533520 x1) (* 12.949234 x2) (* 10236.884000 x3) (* 13176.786000 x4))))))
(assert (<= (- 2772000.0) (- (* x0 (+ (- 326669.510400) (* 7390.684120 x1) (* (- 27.898698) x2) (* 16643.076000 x3) (* 30988.146000 x4))))))

(minimize
	(+ (* 8720288.849000 x0) (- 24345.0 (* x0 (+ (* (- 8720288.849000) x0) (* 150512.525300 x1) (* (- 156.695032) x2) (* 476470.322200 x3) (* 729482.827100 x4)))))
)
(check-sat)
(get-objectives)
(exit)

